c *********************************
c * Circuit generated by BenCGen
c *
c * Parity_380
c *
c * Ports with 1 gate(s): 1
c * Ports with 2 gate(s): 380
c * Total gates: 381
c *********************************
p cnf 761 1521
1 383 0
-1 -383 0
1 -382 0
383 -382 0
-1 -383 382 0
1 2 -384 0
-1 2 384 0
1 -2 384 0
-1 -2 -384 0
3 4 -385 0
-3 4 385 0
3 -4 385 0
-3 -4 -385 0
5 6 -386 0
-5 6 386 0
5 -6 386 0
-5 -6 -386 0
7 8 -387 0
-7 8 387 0
7 -8 387 0
-7 -8 -387 0
9 10 -388 0
-9 10 388 0
9 -10 388 0
-9 -10 -388 0
11 12 -389 0
-11 12 389 0
11 -12 389 0
-11 -12 -389 0
13 14 -390 0
-13 14 390 0
13 -14 390 0
-13 -14 -390 0
15 16 -391 0
-15 16 391 0
15 -16 391 0
-15 -16 -391 0
17 18 -392 0
-17 18 392 0
17 -18 392 0
-17 -18 -392 0
19 20 -393 0
-19 20 393 0
19 -20 393 0
-19 -20 -393 0
21 22 -394 0
-21 22 394 0
21 -22 394 0
-21 -22 -394 0
23 24 -395 0
-23 24 395 0
23 -24 395 0
-23 -24 -395 0
25 26 -396 0
-25 26 396 0
25 -26 396 0
-25 -26 -396 0
27 28 -397 0
-27 28 397 0
27 -28 397 0
-27 -28 -397 0
29 30 -398 0
-29 30 398 0
29 -30 398 0
-29 -30 -398 0
31 32 -399 0
-31 32 399 0
31 -32 399 0
-31 -32 -399 0
33 34 -400 0
-33 34 400 0
33 -34 400 0
-33 -34 -400 0
35 36 -401 0
-35 36 401 0
35 -36 401 0
-35 -36 -401 0
37 38 -402 0
-37 38 402 0
37 -38 402 0
-37 -38 -402 0
39 40 -403 0
-39 40 403 0
39 -40 403 0
-39 -40 -403 0
41 42 -404 0
-41 42 404 0
41 -42 404 0
-41 -42 -404 0
43 44 -405 0
-43 44 405 0
43 -44 405 0
-43 -44 -405 0
45 46 -406 0
-45 46 406 0
45 -46 406 0
-45 -46 -406 0
47 48 -407 0
-47 48 407 0
47 -48 407 0
-47 -48 -407 0
49 50 -408 0
-49 50 408 0
49 -50 408 0
-49 -50 -408 0
51 52 -409 0
-51 52 409 0
51 -52 409 0
-51 -52 -409 0
53 54 -410 0
-53 54 410 0
53 -54 410 0
-53 -54 -410 0
55 56 -411 0
-55 56 411 0
55 -56 411 0
-55 -56 -411 0
57 58 -412 0
-57 58 412 0
57 -58 412 0
-57 -58 -412 0
59 60 -413 0
-59 60 413 0
59 -60 413 0
-59 -60 -413 0
61 62 -414 0
-61 62 414 0
61 -62 414 0
-61 -62 -414 0
63 64 -415 0
-63 64 415 0
63 -64 415 0
-63 -64 -415 0
65 66 -416 0
-65 66 416 0
65 -66 416 0
-65 -66 -416 0
67 68 -417 0
-67 68 417 0
67 -68 417 0
-67 -68 -417 0
69 70 -418 0
-69 70 418 0
69 -70 418 0
-69 -70 -418 0
71 72 -419 0
-71 72 419 0
71 -72 419 0
-71 -72 -419 0
73 74 -420 0
-73 74 420 0
73 -74 420 0
-73 -74 -420 0
75 76 -421 0
-75 76 421 0
75 -76 421 0
-75 -76 -421 0
77 78 -422 0
-77 78 422 0
77 -78 422 0
-77 -78 -422 0
79 80 -423 0
-79 80 423 0
79 -80 423 0
-79 -80 -423 0
81 82 -424 0
-81 82 424 0
81 -82 424 0
-81 -82 -424 0
83 84 -425 0
-83 84 425 0
83 -84 425 0
-83 -84 -425 0
85 86 -426 0
-85 86 426 0
85 -86 426 0
-85 -86 -426 0
87 88 -427 0
-87 88 427 0
87 -88 427 0
-87 -88 -427 0
89 90 -428 0
-89 90 428 0
89 -90 428 0
-89 -90 -428 0
91 92 -429 0
-91 92 429 0
91 -92 429 0
-91 -92 -429 0
93 94 -430 0
-93 94 430 0
93 -94 430 0
-93 -94 -430 0
95 96 -431 0
-95 96 431 0
95 -96 431 0
-95 -96 -431 0
97 98 -432 0
-97 98 432 0
97 -98 432 0
-97 -98 -432 0
99 100 -433 0
-99 100 433 0
99 -100 433 0
-99 -100 -433 0
101 102 -434 0
-101 102 434 0
101 -102 434 0
-101 -102 -434 0
103 104 -435 0
-103 104 435 0
103 -104 435 0
-103 -104 -435 0
105 106 -436 0
-105 106 436 0
105 -106 436 0
-105 -106 -436 0
107 108 -437 0
-107 108 437 0
107 -108 437 0
-107 -108 -437 0
109 110 -438 0
-109 110 438 0
109 -110 438 0
-109 -110 -438 0
111 112 -439 0
-111 112 439 0
111 -112 439 0
-111 -112 -439 0
113 114 -440 0
-113 114 440 0
113 -114 440 0
-113 -114 -440 0
115 116 -441 0
-115 116 441 0
115 -116 441 0
-115 -116 -441 0
117 118 -442 0
-117 118 442 0
117 -118 442 0
-117 -118 -442 0
119 120 -443 0
-119 120 443 0
119 -120 443 0
-119 -120 -443 0
121 122 -444 0
-121 122 444 0
121 -122 444 0
-121 -122 -444 0
123 124 -445 0
-123 124 445 0
123 -124 445 0
-123 -124 -445 0
125 126 -446 0
-125 126 446 0
125 -126 446 0
-125 -126 -446 0
127 128 -447 0
-127 128 447 0
127 -128 447 0
-127 -128 -447 0
129 130 -448 0
-129 130 448 0
129 -130 448 0
-129 -130 -448 0
131 132 -449 0
-131 132 449 0
131 -132 449 0
-131 -132 -449 0
133 134 -450 0
-133 134 450 0
133 -134 450 0
-133 -134 -450 0
135 136 -451 0
-135 136 451 0
135 -136 451 0
-135 -136 -451 0
137 138 -452 0
-137 138 452 0
137 -138 452 0
-137 -138 -452 0
139 140 -453 0
-139 140 453 0
139 -140 453 0
-139 -140 -453 0
141 142 -454 0
-141 142 454 0
141 -142 454 0
-141 -142 -454 0
143 144 -455 0
-143 144 455 0
143 -144 455 0
-143 -144 -455 0
145 146 -456 0
-145 146 456 0
145 -146 456 0
-145 -146 -456 0
147 148 -457 0
-147 148 457 0
147 -148 457 0
-147 -148 -457 0
149 150 -458 0
-149 150 458 0
149 -150 458 0
-149 -150 -458 0
151 152 -459 0
-151 152 459 0
151 -152 459 0
-151 -152 -459 0
153 154 -460 0
-153 154 460 0
153 -154 460 0
-153 -154 -460 0
155 156 -461 0
-155 156 461 0
155 -156 461 0
-155 -156 -461 0
157 158 -462 0
-157 158 462 0
157 -158 462 0
-157 -158 -462 0
159 160 -463 0
-159 160 463 0
159 -160 463 0
-159 -160 -463 0
161 162 -464 0
-161 162 464 0
161 -162 464 0
-161 -162 -464 0
163 164 -465 0
-163 164 465 0
163 -164 465 0
-163 -164 -465 0
165 166 -466 0
-165 166 466 0
165 -166 466 0
-165 -166 -466 0
167 168 -467 0
-167 168 467 0
167 -168 467 0
-167 -168 -467 0
169 170 -468 0
-169 170 468 0
169 -170 468 0
-169 -170 -468 0
171 172 -469 0
-171 172 469 0
171 -172 469 0
-171 -172 -469 0
173 174 -470 0
-173 174 470 0
173 -174 470 0
-173 -174 -470 0
175 176 -471 0
-175 176 471 0
175 -176 471 0
-175 -176 -471 0
177 178 -472 0
-177 178 472 0
177 -178 472 0
-177 -178 -472 0
179 180 -473 0
-179 180 473 0
179 -180 473 0
-179 -180 -473 0
181 182 -474 0
-181 182 474 0
181 -182 474 0
-181 -182 -474 0
183 184 -475 0
-183 184 475 0
183 -184 475 0
-183 -184 -475 0
185 186 -476 0
-185 186 476 0
185 -186 476 0
-185 -186 -476 0
187 188 -477 0
-187 188 477 0
187 -188 477 0
-187 -188 -477 0
189 190 -478 0
-189 190 478 0
189 -190 478 0
-189 -190 -478 0
191 192 -479 0
-191 192 479 0
191 -192 479 0
-191 -192 -479 0
193 194 -480 0
-193 194 480 0
193 -194 480 0
-193 -194 -480 0
195 196 -481 0
-195 196 481 0
195 -196 481 0
-195 -196 -481 0
197 198 -482 0
-197 198 482 0
197 -198 482 0
-197 -198 -482 0
199 200 -483 0
-199 200 483 0
199 -200 483 0
-199 -200 -483 0
201 202 -484 0
-201 202 484 0
201 -202 484 0
-201 -202 -484 0
203 204 -485 0
-203 204 485 0
203 -204 485 0
-203 -204 -485 0
205 206 -486 0
-205 206 486 0
205 -206 486 0
-205 -206 -486 0
207 208 -487 0
-207 208 487 0
207 -208 487 0
-207 -208 -487 0
209 210 -488 0
-209 210 488 0
209 -210 488 0
-209 -210 -488 0
211 212 -489 0
-211 212 489 0
211 -212 489 0
-211 -212 -489 0
213 214 -490 0
-213 214 490 0
213 -214 490 0
-213 -214 -490 0
215 216 -491 0
-215 216 491 0
215 -216 491 0
-215 -216 -491 0
217 218 -492 0
-217 218 492 0
217 -218 492 0
-217 -218 -492 0
219 220 -493 0
-219 220 493 0
219 -220 493 0
-219 -220 -493 0
221 222 -494 0
-221 222 494 0
221 -222 494 0
-221 -222 -494 0
223 224 -495 0
-223 224 495 0
223 -224 495 0
-223 -224 -495 0
225 226 -496 0
-225 226 496 0
225 -226 496 0
-225 -226 -496 0
227 228 -497 0
-227 228 497 0
227 -228 497 0
-227 -228 -497 0
229 230 -498 0
-229 230 498 0
229 -230 498 0
-229 -230 -498 0
231 232 -499 0
-231 232 499 0
231 -232 499 0
-231 -232 -499 0
233 234 -500 0
-233 234 500 0
233 -234 500 0
-233 -234 -500 0
235 236 -501 0
-235 236 501 0
235 -236 501 0
-235 -236 -501 0
237 238 -502 0
-237 238 502 0
237 -238 502 0
-237 -238 -502 0
239 240 -503 0
-239 240 503 0
239 -240 503 0
-239 -240 -503 0
241 242 -504 0
-241 242 504 0
241 -242 504 0
-241 -242 -504 0
243 244 -505 0
-243 244 505 0
243 -244 505 0
-243 -244 -505 0
245 246 -506 0
-245 246 506 0
245 -246 506 0
-245 -246 -506 0
247 248 -507 0
-247 248 507 0
247 -248 507 0
-247 -248 -507 0
249 250 -508 0
-249 250 508 0
249 -250 508 0
-249 -250 -508 0
251 252 -509 0
-251 252 509 0
251 -252 509 0
-251 -252 -509 0
253 254 -510 0
-253 254 510 0
253 -254 510 0
-253 -254 -510 0
255 256 -511 0
-255 256 511 0
255 -256 511 0
-255 -256 -511 0
257 258 -512 0
-257 258 512 0
257 -258 512 0
-257 -258 -512 0
259 260 -513 0
-259 260 513 0
259 -260 513 0
-259 -260 -513 0
261 262 -514 0
-261 262 514 0
261 -262 514 0
-261 -262 -514 0
263 264 -515 0
-263 264 515 0
263 -264 515 0
-263 -264 -515 0
265 266 -516 0
-265 266 516 0
265 -266 516 0
-265 -266 -516 0
267 268 -517 0
-267 268 517 0
267 -268 517 0
-267 -268 -517 0
269 270 -518 0
-269 270 518 0
269 -270 518 0
-269 -270 -518 0
271 272 -519 0
-271 272 519 0
271 -272 519 0
-271 -272 -519 0
273 274 -520 0
-273 274 520 0
273 -274 520 0
-273 -274 -520 0
275 276 -521 0
-275 276 521 0
275 -276 521 0
-275 -276 -521 0
277 278 -522 0
-277 278 522 0
277 -278 522 0
-277 -278 -522 0
279 280 -523 0
-279 280 523 0
279 -280 523 0
-279 -280 -523 0
281 282 -524 0
-281 282 524 0
281 -282 524 0
-281 -282 -524 0
283 284 -525 0
-283 284 525 0
283 -284 525 0
-283 -284 -525 0
285 286 -526 0
-285 286 526 0
285 -286 526 0
-285 -286 -526 0
287 288 -527 0
-287 288 527 0
287 -288 527 0
-287 -288 -527 0
289 290 -528 0
-289 290 528 0
289 -290 528 0
-289 -290 -528 0
291 292 -529 0
-291 292 529 0
291 -292 529 0
-291 -292 -529 0
293 294 -530 0
-293 294 530 0
293 -294 530 0
-293 -294 -530 0
295 296 -531 0
-295 296 531 0
295 -296 531 0
-295 -296 -531 0
297 298 -532 0
-297 298 532 0
297 -298 532 0
-297 -298 -532 0
299 300 -533 0
-299 300 533 0
299 -300 533 0
-299 -300 -533 0
301 302 -534 0
-301 302 534 0
301 -302 534 0
-301 -302 -534 0
303 304 -535 0
-303 304 535 0
303 -304 535 0
-303 -304 -535 0
305 306 -536 0
-305 306 536 0
305 -306 536 0
-305 -306 -536 0
307 308 -537 0
-307 308 537 0
307 -308 537 0
-307 -308 -537 0
309 310 -538 0
-309 310 538 0
309 -310 538 0
-309 -310 -538 0
311 312 -539 0
-311 312 539 0
311 -312 539 0
-311 -312 -539 0
313 314 -540 0
-313 314 540 0
313 -314 540 0
-313 -314 -540 0
315 316 -541 0
-315 316 541 0
315 -316 541 0
-315 -316 -541 0
317 318 -542 0
-317 318 542 0
317 -318 542 0
-317 -318 -542 0
319 320 -543 0
-319 320 543 0
319 -320 543 0
-319 -320 -543 0
321 322 -544 0
-321 322 544 0
321 -322 544 0
-321 -322 -544 0
323 324 -545 0
-323 324 545 0
323 -324 545 0
-323 -324 -545 0
325 326 -546 0
-325 326 546 0
325 -326 546 0
-325 -326 -546 0
327 328 -547 0
-327 328 547 0
327 -328 547 0
-327 -328 -547 0
329 330 -548 0
-329 330 548 0
329 -330 548 0
-329 -330 -548 0
331 332 -549 0
-331 332 549 0
331 -332 549 0
-331 -332 -549 0
333 334 -550 0
-333 334 550 0
333 -334 550 0
-333 -334 -550 0
335 336 -551 0
-335 336 551 0
335 -336 551 0
-335 -336 -551 0
337 338 -552 0
-337 338 552 0
337 -338 552 0
-337 -338 -552 0
339 340 -553 0
-339 340 553 0
339 -340 553 0
-339 -340 -553 0
341 342 -554 0
-341 342 554 0
341 -342 554 0
-341 -342 -554 0
343 344 -555 0
-343 344 555 0
343 -344 555 0
-343 -344 -555 0
345 346 -556 0
-345 346 556 0
345 -346 556 0
-345 -346 -556 0
347 348 -557 0
-347 348 557 0
347 -348 557 0
-347 -348 -557 0
349 350 -558 0
-349 350 558 0
349 -350 558 0
-349 -350 -558 0
351 352 -559 0
-351 352 559 0
351 -352 559 0
-351 -352 -559 0
353 354 -560 0
-353 354 560 0
353 -354 560 0
-353 -354 -560 0
355 356 -561 0
-355 356 561 0
355 -356 561 0
-355 -356 -561 0
357 358 -562 0
-357 358 562 0
357 -358 562 0
-357 -358 -562 0
359 360 -563 0
-359 360 563 0
359 -360 563 0
-359 -360 -563 0
361 362 -564 0
-361 362 564 0
361 -362 564 0
-361 -362 -564 0
363 364 -565 0
-363 364 565 0
363 -364 565 0
-363 -364 -565 0
365 366 -566 0
-365 366 566 0
365 -366 566 0
-365 -366 -566 0
367 368 -567 0
-367 368 567 0
367 -368 567 0
-367 -368 -567 0
369 370 -568 0
-369 370 568 0
369 -370 568 0
-369 -370 -568 0
371 372 -569 0
-371 372 569 0
371 -372 569 0
-371 -372 -569 0
373 374 -570 0
-373 374 570 0
373 -374 570 0
-373 -374 -570 0
375 376 -571 0
-375 376 571 0
375 -376 571 0
-375 -376 -571 0
377 378 -572 0
-377 378 572 0
377 -378 572 0
-377 -378 -572 0
379 380 -573 0
-379 380 573 0
379 -380 573 0
-379 -380 -573 0
384 385 -574 0
-384 385 574 0
384 -385 574 0
-384 -385 -574 0
386 387 -575 0
-386 387 575 0
386 -387 575 0
-386 -387 -575 0
388 389 -576 0
-388 389 576 0
388 -389 576 0
-388 -389 -576 0
390 391 -577 0
-390 391 577 0
390 -391 577 0
-390 -391 -577 0
392 393 -578 0
-392 393 578 0
392 -393 578 0
-392 -393 -578 0
394 395 -579 0
-394 395 579 0
394 -395 579 0
-394 -395 -579 0
396 397 -580 0
-396 397 580 0
396 -397 580 0
-396 -397 -580 0
398 399 -581 0
-398 399 581 0
398 -399 581 0
-398 -399 -581 0
400 401 -582 0
-400 401 582 0
400 -401 582 0
-400 -401 -582 0
402 403 -583 0
-402 403 583 0
402 -403 583 0
-402 -403 -583 0
404 405 -584 0
-404 405 584 0
404 -405 584 0
-404 -405 -584 0
406 407 -585 0
-406 407 585 0
406 -407 585 0
-406 -407 -585 0
408 409 -586 0
-408 409 586 0
408 -409 586 0
-408 -409 -586 0
410 411 -587 0
-410 411 587 0
410 -411 587 0
-410 -411 -587 0
412 413 -588 0
-412 413 588 0
412 -413 588 0
-412 -413 -588 0
414 415 -589 0
-414 415 589 0
414 -415 589 0
-414 -415 -589 0
416 417 -590 0
-416 417 590 0
416 -417 590 0
-416 -417 -590 0
418 419 -591 0
-418 419 591 0
418 -419 591 0
-418 -419 -591 0
420 421 -592 0
-420 421 592 0
420 -421 592 0
-420 -421 -592 0
422 423 -593 0
-422 423 593 0
422 -423 593 0
-422 -423 -593 0
424 425 -594 0
-424 425 594 0
424 -425 594 0
-424 -425 -594 0
426 427 -595 0
-426 427 595 0
426 -427 595 0
-426 -427 -595 0
428 429 -596 0
-428 429 596 0
428 -429 596 0
-428 -429 -596 0
430 431 -597 0
-430 431 597 0
430 -431 597 0
-430 -431 -597 0
432 433 -598 0
-432 433 598 0
432 -433 598 0
-432 -433 -598 0
434 435 -599 0
-434 435 599 0
434 -435 599 0
-434 -435 -599 0
436 437 -600 0
-436 437 600 0
436 -437 600 0
-436 -437 -600 0
438 439 -601 0
-438 439 601 0
438 -439 601 0
-438 -439 -601 0
440 441 -602 0
-440 441 602 0
440 -441 602 0
-440 -441 -602 0
442 443 -603 0
-442 443 603 0
442 -443 603 0
-442 -443 -603 0
444 445 -604 0
-444 445 604 0
444 -445 604 0
-444 -445 -604 0
446 447 -605 0
-446 447 605 0
446 -447 605 0
-446 -447 -605 0
448 449 -606 0
-448 449 606 0
448 -449 606 0
-448 -449 -606 0
450 451 -607 0
-450 451 607 0
450 -451 607 0
-450 -451 -607 0
452 453 -608 0
-452 453 608 0
452 -453 608 0
-452 -453 -608 0
454 455 -609 0
-454 455 609 0
454 -455 609 0
-454 -455 -609 0
456 457 -610 0
-456 457 610 0
456 -457 610 0
-456 -457 -610 0
458 459 -611 0
-458 459 611 0
458 -459 611 0
-458 -459 -611 0
460 461 -612 0
-460 461 612 0
460 -461 612 0
-460 -461 -612 0
462 463 -613 0
-462 463 613 0
462 -463 613 0
-462 -463 -613 0
464 465 -614 0
-464 465 614 0
464 -465 614 0
-464 -465 -614 0
466 467 -615 0
-466 467 615 0
466 -467 615 0
-466 -467 -615 0
468 469 -616 0
-468 469 616 0
468 -469 616 0
-468 -469 -616 0
470 471 -617 0
-470 471 617 0
470 -471 617 0
-470 -471 -617 0
472 473 -618 0
-472 473 618 0
472 -473 618 0
-472 -473 -618 0
474 475 -619 0
-474 475 619 0
474 -475 619 0
-474 -475 -619 0
476 477 -620 0
-476 477 620 0
476 -477 620 0
-476 -477 -620 0
478 479 -621 0
-478 479 621 0
478 -479 621 0
-478 -479 -621 0
480 481 -622 0
-480 481 622 0
480 -481 622 0
-480 -481 -622 0
482 483 -623 0
-482 483 623 0
482 -483 623 0
-482 -483 -623 0
484 485 -624 0
-484 485 624 0
484 -485 624 0
-484 -485 -624 0
486 487 -625 0
-486 487 625 0
486 -487 625 0
-486 -487 -625 0
488 489 -626 0
-488 489 626 0
488 -489 626 0
-488 -489 -626 0
490 491 -627 0
-490 491 627 0
490 -491 627 0
-490 -491 -627 0
492 493 -628 0
-492 493 628 0
492 -493 628 0
-492 -493 -628 0
494 495 -629 0
-494 495 629 0
494 -495 629 0
-494 -495 -629 0
496 497 -630 0
-496 497 630 0
496 -497 630 0
-496 -497 -630 0
498 499 -631 0
-498 499 631 0
498 -499 631 0
-498 -499 -631 0
500 501 -632 0
-500 501 632 0
500 -501 632 0
-500 -501 -632 0
502 503 -633 0
-502 503 633 0
502 -503 633 0
-502 -503 -633 0
504 505 -634 0
-504 505 634 0
504 -505 634 0
-504 -505 -634 0
506 507 -635 0
-506 507 635 0
506 -507 635 0
-506 -507 -635 0
508 509 -636 0
-508 509 636 0
508 -509 636 0
-508 -509 -636 0
510 511 -637 0
-510 511 637 0
510 -511 637 0
-510 -511 -637 0
512 513 -638 0
-512 513 638 0
512 -513 638 0
-512 -513 -638 0
514 515 -639 0
-514 515 639 0
514 -515 639 0
-514 -515 -639 0
516 517 -640 0
-516 517 640 0
516 -517 640 0
-516 -517 -640 0
518 519 -641 0
-518 519 641 0
518 -519 641 0
-518 -519 -641 0
520 521 -642 0
-520 521 642 0
520 -521 642 0
-520 -521 -642 0
522 523 -643 0
-522 523 643 0
522 -523 643 0
-522 -523 -643 0
524 525 -644 0
-524 525 644 0
524 -525 644 0
-524 -525 -644 0
526 527 -645 0
-526 527 645 0
526 -527 645 0
-526 -527 -645 0
528 529 -646 0
-528 529 646 0
528 -529 646 0
-528 -529 -646 0
530 531 -647 0
-530 531 647 0
530 -531 647 0
-530 -531 -647 0
532 533 -648 0
-532 533 648 0
532 -533 648 0
-532 -533 -648 0
534 535 -649 0
-534 535 649 0
534 -535 649 0
-534 -535 -649 0
536 537 -650 0
-536 537 650 0
536 -537 650 0
-536 -537 -650 0
538 539 -651 0
-538 539 651 0
538 -539 651 0
-538 -539 -651 0
540 541 -652 0
-540 541 652 0
540 -541 652 0
-540 -541 -652 0
542 543 -653 0
-542 543 653 0
542 -543 653 0
-542 -543 -653 0
544 545 -654 0
-544 545 654 0
544 -545 654 0
-544 -545 -654 0
546 547 -655 0
-546 547 655 0
546 -547 655 0
-546 -547 -655 0
548 549 -656 0
-548 549 656 0
548 -549 656 0
-548 -549 -656 0
550 551 -657 0
-550 551 657 0
550 -551 657 0
-550 -551 -657 0
552 553 -658 0
-552 553 658 0
552 -553 658 0
-552 -553 -658 0
554 555 -659 0
-554 555 659 0
554 -555 659 0
-554 -555 -659 0
556 557 -660 0
-556 557 660 0
556 -557 660 0
-556 -557 -660 0
558 559 -661 0
-558 559 661 0
558 -559 661 0
-558 -559 -661 0
560 561 -662 0
-560 561 662 0
560 -561 662 0
-560 -561 -662 0
562 563 -663 0
-562 563 663 0
562 -563 663 0
-562 -563 -663 0
564 565 -664 0
-564 565 664 0
564 -565 664 0
-564 -565 -664 0
566 567 -665 0
-566 567 665 0
566 -567 665 0
-566 -567 -665 0
568 569 -666 0
-568 569 666 0
568 -569 666 0
-568 -569 -666 0
570 571 -667 0
-570 571 667 0
570 -571 667 0
-570 -571 -667 0
572 573 -668 0
-572 573 668 0
572 -573 668 0
-572 -573 -668 0
574 575 -669 0
-574 575 669 0
574 -575 669 0
-574 -575 -669 0
576 577 -670 0
-576 577 670 0
576 -577 670 0
-576 -577 -670 0
578 579 -671 0
-578 579 671 0
578 -579 671 0
-578 -579 -671 0
580 581 -672 0
-580 581 672 0
580 -581 672 0
-580 -581 -672 0
582 583 -673 0
-582 583 673 0
582 -583 673 0
-582 -583 -673 0
584 585 -674 0
-584 585 674 0
584 -585 674 0
-584 -585 -674 0
586 587 -675 0
-586 587 675 0
586 -587 675 0
-586 -587 -675 0
588 589 -676 0
-588 589 676 0
588 -589 676 0
-588 -589 -676 0
590 591 -677 0
-590 591 677 0
590 -591 677 0
-590 -591 -677 0
592 593 -678 0
-592 593 678 0
592 -593 678 0
-592 -593 -678 0
594 595 -679 0
-594 595 679 0
594 -595 679 0
-594 -595 -679 0
596 597 -680 0
-596 597 680 0
596 -597 680 0
-596 -597 -680 0
598 599 -681 0
-598 599 681 0
598 -599 681 0
-598 -599 -681 0
600 601 -682 0
-600 601 682 0
600 -601 682 0
-600 -601 -682 0
602 603 -683 0
-602 603 683 0
602 -603 683 0
-602 -603 -683 0
604 605 -684 0
-604 605 684 0
604 -605 684 0
-604 -605 -684 0
606 607 -685 0
-606 607 685 0
606 -607 685 0
-606 -607 -685 0
608 609 -686 0
-608 609 686 0
608 -609 686 0
-608 -609 -686 0
610 611 -687 0
-610 611 687 0
610 -611 687 0
-610 -611 -687 0
612 613 -688 0
-612 613 688 0
612 -613 688 0
-612 -613 -688 0
614 615 -689 0
-614 615 689 0
614 -615 689 0
-614 -615 -689 0
616 617 -690 0
-616 617 690 0
616 -617 690 0
-616 -617 -690 0
618 619 -691 0
-618 619 691 0
618 -619 691 0
-618 -619 -691 0
620 621 -692 0
-620 621 692 0
620 -621 692 0
-620 -621 -692 0
622 623 -693 0
-622 623 693 0
622 -623 693 0
-622 -623 -693 0
624 625 -694 0
-624 625 694 0
624 -625 694 0
-624 -625 -694 0
626 627 -695 0
-626 627 695 0
626 -627 695 0
-626 -627 -695 0
628 629 -696 0
-628 629 696 0
628 -629 696 0
-628 -629 -696 0
630 631 -697 0
-630 631 697 0
630 -631 697 0
-630 -631 -697 0
632 633 -698 0
-632 633 698 0
632 -633 698 0
-632 -633 -698 0
634 635 -699 0
-634 635 699 0
634 -635 699 0
-634 -635 -699 0
636 637 -700 0
-636 637 700 0
636 -637 700 0
-636 -637 -700 0
638 639 -701 0
-638 639 701 0
638 -639 701 0
-638 -639 -701 0
640 641 -702 0
-640 641 702 0
640 -641 702 0
-640 -641 -702 0
642 643 -703 0
-642 643 703 0
642 -643 703 0
-642 -643 -703 0
644 645 -704 0
-644 645 704 0
644 -645 704 0
-644 -645 -704 0
646 647 -705 0
-646 647 705 0
646 -647 705 0
-646 -647 -705 0
648 649 -706 0
-648 649 706 0
648 -649 706 0
-648 -649 -706 0
650 651 -707 0
-650 651 707 0
650 -651 707 0
-650 -651 -707 0
652 653 -708 0
-652 653 708 0
652 -653 708 0
-652 -653 -708 0
654 655 -709 0
-654 655 709 0
654 -655 709 0
-654 -655 -709 0
656 657 -710 0
-656 657 710 0
656 -657 710 0
-656 -657 -710 0
658 659 -711 0
-658 659 711 0
658 -659 711 0
-658 -659 -711 0
660 661 -712 0
-660 661 712 0
660 -661 712 0
-660 -661 -712 0
662 663 -713 0
-662 663 713 0
662 -663 713 0
-662 -663 -713 0
664 665 -714 0
-664 665 714 0
664 -665 714 0
-664 -665 -714 0
666 667 -715 0
-666 667 715 0
666 -667 715 0
-666 -667 -715 0
669 670 -716 0
-669 670 716 0
669 -670 716 0
-669 -670 -716 0
671 672 -717 0
-671 672 717 0
671 -672 717 0
-671 -672 -717 0
673 674 -718 0
-673 674 718 0
673 -674 718 0
-673 -674 -718 0
675 676 -719 0
-675 676 719 0
675 -676 719 0
-675 -676 -719 0
677 678 -720 0
-677 678 720 0
677 -678 720 0
-677 -678 -720 0
679 680 -721 0
-679 680 721 0
679 -680 721 0
-679 -680 -721 0
681 682 -722 0
-681 682 722 0
681 -682 722 0
-681 -682 -722 0
683 684 -723 0
-683 684 723 0
683 -684 723 0
-683 -684 -723 0
685 686 -724 0
-685 686 724 0
685 -686 724 0
-685 -686 -724 0
687 688 -725 0
-687 688 725 0
687 -688 725 0
-687 -688 -725 0
689 690 -726 0
-689 690 726 0
689 -690 726 0
-689 -690 -726 0
691 692 -727 0
-691 692 727 0
691 -692 727 0
-691 -692 -727 0
693 694 -728 0
-693 694 728 0
693 -694 728 0
-693 -694 -728 0
695 696 -729 0
-695 696 729 0
695 -696 729 0
-695 -696 -729 0
697 698 -730 0
-697 698 730 0
697 -698 730 0
-697 -698 -730 0
699 700 -731 0
-699 700 731 0
699 -700 731 0
-699 -700 -731 0
701 702 -732 0
-701 702 732 0
701 -702 732 0
-701 -702 -732 0
703 704 -733 0
-703 704 733 0
703 -704 733 0
-703 -704 -733 0
705 706 -734 0
-705 706 734 0
705 -706 734 0
-705 -706 -734 0
707 708 -735 0
-707 708 735 0
707 -708 735 0
-707 -708 -735 0
709 710 -736 0
-709 710 736 0
709 -710 736 0
-709 -710 -736 0
711 712 -737 0
-711 712 737 0
711 -712 737 0
-711 -712 -737 0
713 714 -738 0
-713 714 738 0
713 -714 738 0
-713 -714 -738 0
715 668 -739 0
-715 668 739 0
715 -668 739 0
-715 -668 -739 0
716 717 -740 0
-716 717 740 0
716 -717 740 0
-716 -717 -740 0
718 719 -741 0
-718 719 741 0
718 -719 741 0
-718 -719 -741 0
720 721 -742 0
-720 721 742 0
720 -721 742 0
-720 -721 -742 0
722 723 -743 0
-722 723 743 0
722 -723 743 0
-722 -723 -743 0
724 725 -744 0
-724 725 744 0
724 -725 744 0
-724 -725 -744 0
726 727 -745 0
-726 727 745 0
726 -727 745 0
-726 -727 -745 0
728 729 -746 0
-728 729 746 0
728 -729 746 0
-728 -729 -746 0
730 731 -747 0
-730 731 747 0
730 -731 747 0
-730 -731 -747 0
732 733 -748 0
-732 733 748 0
732 -733 748 0
-732 -733 -748 0
734 735 -749 0
-734 735 749 0
734 -735 749 0
-734 -735 -749 0
736 737 -750 0
-736 737 750 0
736 -737 750 0
-736 -737 -750 0
738 739 -751 0
-738 739 751 0
738 -739 751 0
-738 -739 -751 0
740 741 -752 0
-740 741 752 0
740 -741 752 0
-740 -741 -752 0
742 743 -753 0
-742 743 753 0
742 -743 753 0
-742 -743 -753 0
744 745 -754 0
-744 745 754 0
744 -745 754 0
-744 -745 -754 0
746 747 -755 0
-746 747 755 0
746 -747 755 0
-746 -747 -755 0
748 749 -756 0
-748 749 756 0
748 -749 756 0
-748 -749 -756 0
750 751 -757 0
-750 751 757 0
750 -751 757 0
-750 -751 -757 0
752 753 -758 0
-752 753 758 0
752 -753 758 0
-752 -753 -758 0
754 755 -759 0
-754 755 759 0
754 -755 759 0
-754 -755 -759 0
756 757 -760 0
-756 757 760 0
756 -757 760 0
-756 -757 -760 0
758 759 -761 0
-758 759 761 0
758 -759 761 0
-758 -759 -761 0
761 760 -381 0
-761 760 381 0
761 -760 381 0
-761 -760 -381 0
